peakDumbCharging = 11100; 
Machine = anon_enum(16); 
machineSpeed = [3700,3700,3700,3700,3700,3700,3700,3700,3700,3700,3700,3700,3700,3700,3700,3700]; 
machineLoad = [3700,3700,3700,3700,3700,3700,3700,3700,3700,3700,3700,3700,3700,3700,3700,3700]; 
Car = anon_enum(9); 
demandCar = [5000,5720,10640,4280,2800,12240,16200,640,6280]; 
arrivalCar = [69,63,62,61,58,55,48,44,44]; 
departureCar = [71,66,66,63,61,62,54,48,47]; 
